p cnf 13 13
-4 6 1 9 -2 -8 10 0
-2 -7 6 5 -11 -10 -12 0
-4 13 7 -2 -3 -9 -1 0
12 -1 5 4 -9 -7 11 0
-9 -3 6 1 -4 -11 -2 0
-6 -10 -8 -13 4 -2 1 0
2 -8 10 -4 3 -5 -1 0
-1 -2 -6 10 -4 5 -3 0
11 6 1 10 -2 -3 8 0
6 -3 -1 -8 5 -13 9 0
5 11 1 7 -8 -3 -2 0
8 -4 -2 -5 -6 9 -1 0
12 6 1 5 -10 8 3 0
